11
2147483647 32 17 55 24 11 77 49 97 79 38 
32 2147483647 11 1 12 5 62 43 78 75 71 
17 11 2147483647 42 54 7 40 61 63 3 88 
55 1 42 2147483647 29 29 56 44 40 56 8 
24 12 54 29 2147483647 34 39 94 54 75 15 
11 5 7 29 34 2147483647 8 27 51 41 68 
77 62 40 56 39 8 2147483647 97 66 10 9 
49 43 61 44 94 27 97 2147483647 67 6 81 
97 78 63 40 54 51 66 67 2147483647 86 32 
79 75 3 56 75 41 10 6 86 2147483647 23 
38 71 88 8 15 68 9 81 32 23 2147483647 
